SECTION Graph 
Nodes 50
Edges 618
E 1 2 46
E 1 3 46
E 1 4 36
E 1 7 39
E 1 8 93
E 1 11 17
E 1 15 58
E 1 16 17
E 1 18 1
E 1 22 34
E 1 24 65
E 1 26 72
E 1 27 81
E 1 30 10
E 1 32 79
E 1 34 65
E 1 35 46
E 1 36 67
E 1 39 64
E 1 40 77
E 1 41 40
E 1 48 100
E 1 49 4
E 2 4 77
E 2 5 37
E 2 7 71
E 2 15 33
E 2 16 9
E 2 19 20
E 2 23 16
E 2 24 9
E 2 25 85
E 2 28 80
E 2 29 98
E 2 30 10
E 2 33 12
E 2 36 26
E 2 39 71
E 2 41 41
E 2 44 41
E 2 45 66
E 2 46 50
E 2 47 35
E 3 4 90
E 3 5 14
E 3 10 79
E 3 12 51
E 3 13 78
E 3 14 99
E 3 20 57
E 3 21 53
E 3 23 23
E 3 29 23
E 3 30 64
E 3 32 22
E 3 33 76
E 3 36 38
E 3 38 8
E 3 39 20
E 3 41 6
E 3 43 69
E 3 44 4
E 3 45 89
E 3 46 55
E 3 49 60
E 3 50 32
E 4 8 32
E 4 9 24
E 4 10 5
E 4 13 67
E 4 14 68
E 4 20 15
E 4 21 79
E 4 25 41
E 4 26 64
E 4 28 31
E 4 29 71
E 4 30 52
E 4 35 35
E 4 38 41
E 4 39 37
E 4 40 12
E 4 41 9
E 4 42 79
E 4 43 85
E 4 44 24
E 4 45 60
E 4 48 64
E 5 6 1
E 5 8 27
E 5 9 52
E 5 11 65
E 5 12 38
E 5 13 68
E 5 14 37
E 5 18 20
E 5 20 65
E 5 24 25
E 5 25 72
E 5 26 35
E 5 27 62
E 5 28 65
E 5 29 74
E 5 34 50
E 5 35 44
E 5 36 29
E 5 42 73
E 5 43 92
E 5 44 42
E 5 45 51
E 5 47 8
E 5 48 49
E 5 49 38
E 5 50 30
E 6 8 35
E 6 10 2
E 6 11 66
E 6 14 73
E 6 17 79
E 6 22 67
E 6 23 19
E 6 25 95
E 6 26 59
E 6 27 26
E 6 32 20
E 6 33 33
E 6 34 3
E 6 39 77
E 6 47 67
E 6 49 75
E 7 9 19
E 7 10 84
E 7 12 48
E 7 13 62
E 7 18 87
E 7 19 48
E 7 20 49
E 7 23 35
E 7 26 42
E 7 27 22
E 7 28 61
E 7 30 55
E 7 32 15
E 7 33 83
E 7 36 31
E 7 39 52
E 7 40 34
E 7 41 71
E 7 44 19
E 7 45 47
E 7 46 26
E 7 47 69
E 7 49 44
E 7 50 58
E 8 9 71
E 8 10 15
E 8 12 72
E 8 13 83
E 8 15 86
E 8 19 16
E 8 20 18
E 8 23 24
E 8 27 5
E 8 28 33
E 8 29 16
E 8 34 49
E 8 36 91
E 8 37 67
E 8 38 95
E 8 40 77
E 8 41 20
E 8 43 19
E 8 45 59
E 8 46 25
E 8 48 92
E 9 11 37
E 9 15 92
E 9 16 100
E 9 17 53
E 9 18 61
E 9 21 84
E 9 22 37
E 9 23 70
E 9 24 42
E 9 25 50
E 9 26 31
E 9 31 98
E 9 32 16
E 9 33 11
E 9 35 39
E 9 39 92
E 9 43 79
E 9 45 86
E 9 46 71
E 9 47 17
E 9 48 9
E 9 49 31
E 9 50 90
E 10 12 68
E 10 13 28
E 10 15 38
E 10 19 29
E 10 20 42
E 10 22 40
E 10 23 22
E 10 24 63
E 10 27 74
E 10 28 18
E 10 33 71
E 10 34 10
E 10 35 47
E 10 36 88
E 10 41 39
E 10 46 87
E 10 47 90
E 11 15 8
E 11 18 6
E 11 20 16
E 11 21 79
E 11 26 4
E 11 27 80
E 11 30 44
E 11 31 81
E 11 32 96
E 11 33 44
E 11 36 45
E 11 39 79
E 11 41 22
E 11 43 9
E 11 44 11
E 11 47 13
E 11 50 85
E 12 14 10
E 12 15 68
E 12 19 45
E 12 20 10
E 12 21 20
E 12 23 72
E 12 24 95
E 12 26 47
E 12 27 53
E 12 28 55
E 12 29 50
E 12 32 91
E 12 35 96
E 12 39 33
E 12 40 100
E 12 41 89
E 12 43 16
E 12 44 16
E 12 45 85
E 12 47 94
E 12 48 89
E 12 49 11
E 13 14 34
E 13 15 71
E 13 17 92
E 13 18 69
E 13 19 75
E 13 22 82
E 13 24 72
E 13 29 85
E 13 31 11
E 13 33 97
E 13 34 46
E 13 36 50
E 13 37 98
E 13 38 64
E 13 40 60
E 13 42 67
E 13 43 45
E 13 44 85
E 13 46 94
E 13 48 1
E 14 23 16
E 14 24 4
E 14 26 79
E 14 27 21
E 14 28 50
E 14 30 87
E 14 31 86
E 14 33 50
E 14 34 83
E 14 36 68
E 14 40 19
E 14 43 79
E 14 44 78
E 14 47 46
E 14 48 76
E 14 49 74
E 14 50 58
E 15 19 78
E 15 20 97
E 15 21 63
E 15 22 51
E 15 24 40
E 15 25 77
E 15 27 29
E 15 28 63
E 15 29 60
E 15 31 62
E 15 34 64
E 15 35 45
E 15 37 94
E 15 38 92
E 15 44 76
E 15 47 81
E 15 48 58
E 16 17 61
E 16 19 92
E 16 22 91
E 16 24 56
E 16 25 56
E 16 28 11
E 16 31 59
E 16 36 74
E 16 37 6
E 16 38 45
E 16 39 35
E 16 40 18
E 16 41 55
E 16 42 21
E 16 43 67
E 16 45 21
E 16 46 61
E 16 48 10
E 17 23 58
E 17 28 69
E 17 29 46
E 17 33 75
E 17 34 32
E 17 35 80
E 17 36 18
E 17 37 38
E 17 39 29
E 17 41 20
E 17 43 25
E 17 44 1
E 17 45 57
E 17 46 72
E 17 48 85
E 17 49 98
E 18 19 83
E 18 20 33
E 18 21 44
E 18 23 18
E 18 25 33
E 18 26 62
E 18 28 86
E 18 30 53
E 18 31 94
E 18 32 47
E 18 35 73
E 18 39 13
E 18 41 1
E 18 44 80
E 18 45 44
E 18 46 64
E 18 48 87
E 18 50 29
E 19 27 21
E 19 29 73
E 19 36 55
E 19 39 22
E 19 41 57
E 19 44 3
E 19 45 56
E 19 46 76
E 19 49 39
E 19 50 40
E 20 24 99
E 20 25 75
E 20 28 70
E 20 29 9
E 20 30 76
E 20 31 3
E 20 32 26
E 20 33 57
E 20 35 9
E 20 36 85
E 20 37 71
E 20 41 28
E 20 43 35
E 20 46 10
E 20 47 82
E 20 48 54
E 20 49 78
E 21 23 93
E 21 26 88
E 21 27 30
E 21 29 62
E 21 31 57
E 21 32 55
E 21 33 48
E 21 36 78
E 21 42 7
E 21 44 47
E 21 49 65
E 21 50 49
E 22 24 44
E 22 30 9
E 22 31 48
E 22 34 99
E 22 40 23
E 22 46 30
E 22 47 78
E 22 48 96
E 23 24 34
E 23 25 91
E 23 26 93
E 23 27 99
E 23 28 79
E 23 31 86
E 23 32 96
E 23 33 15
E 23 37 41
E 23 38 13
E 23 40 21
E 23 41 40
E 23 42 37
E 23 48 4
E 24 26 82
E 24 27 3
E 24 29 38
E 24 30 76
E 24 32 98
E 24 41 59
E 24 42 60
E 24 44 67
E 24 45 79
E 24 46 65
E 24 47 67
E 24 50 43
E 25 26 78
E 25 27 16
E 25 29 55
E 25 31 92
E 25 33 19
E 25 35 35
E 25 37 98
E 25 41 88
E 25 45 98
E 25 46 34
E 25 47 48
E 25 48 6
E 25 49 79
E 25 50 30
E 26 28 65
E 26 31 97
E 26 32 93
E 26 33 67
E 26 34 60
E 26 35 70
E 26 36 77
E 26 39 15
E 26 40 23
E 26 41 78
E 26 42 57
E 26 45 90
E 26 47 27
E 26 48 49
E 26 49 39
E 26 50 43
E 27 28 63
E 27 29 39
E 27 31 85
E 27 32 76
E 27 34 89
E 27 35 30
E 27 36 84
E 27 37 49
E 27 41 30
E 27 42 25
E 27 43 24
E 27 44 26
E 27 45 58
E 27 47 63
E 28 30 76
E 28 34 99
E 28 35 86
E 28 36 70
E 28 38 48
E 28 39 21
E 28 41 79
E 28 42 82
E 28 43 45
E 28 44 15
E 28 45 72
E 28 46 23
E 28 48 61
E 28 49 5
E 28 50 34
E 29 32 52
E 29 33 16
E 29 35 41
E 29 36 66
E 29 37 79
E 29 38 62
E 29 41 95
E 29 43 2
E 29 45 81
E 29 47 2
E 29 50 18
E 30 34 95
E 30 35 56
E 30 36 87
E 30 39 18
E 30 40 6
E 30 41 22
E 30 44 100
E 30 49 71
E 30 50 24
E 31 32 4
E 31 33 43
E 31 35 47
E 31 36 20
E 31 37 35
E 31 38 8
E 31 39 61
E 31 40 27
E 31 41 77
E 31 42 55
E 31 43 74
E 31 44 34
E 31 45 69
E 31 49 90
E 31 50 86
E 32 33 80
E 32 38 18
E 32 41 1
E 32 42 8
E 32 44 59
E 32 45 2
E 32 46 10
E 32 47 91
E 32 50 92
E 33 34 20
E 33 38 79
E 33 39 74
E 33 40 69
E 33 42 94
E 33 43 87
E 33 44 60
E 33 45 56
E 33 46 75
E 33 49 77
E 34 36 67
E 34 39 46
E 34 40 8
E 34 41 84
E 34 42 19
E 34 43 10
E 34 45 48
E 34 48 90
E 34 49 71
E 34 50 62
E 35 39 29
E 35 40 59
E 35 43 97
E 35 44 37
E 35 45 28
E 35 48 6
E 35 49 22
E 35 50 2
E 36 41 27
E 36 42 43
E 36 49 61
E 36 50 23
E 37 38 17
E 37 40 100
E 37 41 7
E 37 42 12
E 37 43 12
E 37 44 2
E 37 47 42
E 38 41 74
E 38 42 81
E 38 46 43
E 38 47 15
E 38 48 79
E 38 50 59
E 39 40 70
E 39 41 81
E 39 42 73
E 39 45 2
E 39 46 48
E 39 47 36
E 40 44 51
E 40 45 38
E 40 46 95
E 40 47 60
E 40 49 56
E 40 50 29
E 41 42 48
E 41 44 68
E 41 46 97
E 41 47 51
E 42 44 78
E 42 45 39
E 42 50 66
E 43 44 5
E 43 45 60
E 43 46 16
E 43 47 53
E 43 48 83
E 43 49 88
E 43 50 78
E 44 47 35
E 44 49 17
E 45 48 93
E 45 49 17
E 45 50 72
E 46 48 4
E 46 49 31
E 46 50 68
E 47 48 84
E 47 49 17
E 47 50 59
END 

SECTION Terminals 
Terminals 10
TP 46 32
TP 38 24
TP 36 22
TP 34 14
TP 33 2
END 
